[VALIDATOR STDOUT]
Checking plan: /home/jfan5/Safety-gen/runs/benchmark/optic/ferry_20260129_162355/ferry/optic_results/ferry-l38-c20-s38001.plan
Plan executed successfully - checking goal
Plan valid
Final value: 98 

Successful plans:
Value: 98
 /home/jfan5/Safety-gen/runs/benchmark/optic/ferry_20260129_162355/ferry/optic_results/ferry-l38-c20-s38001.plan 98
